NAME: grubhub-debug
TYPE: TSP
COMMENT: size=3 instance=0
DIMENSION: 8
EDGE_WEIGHT_TYPE: EXPLICIT
EDGE_WEIGHT_FORMAT : LOWER_DIAG_ROW
EDGE_WEIGHT_SECTION
0							
0	0						
10000	10000	0					
18000	18000	8000	0				
22000	22000	12000	4000	0			
29000	29000	19000	11000	7000	0		
5000	5000	5000	13001	17000	24000	0	
33000	33000	23000	15000	11000	4000	28000	0
NODE_COORD_SECTION
+0 10 248
-0 10 248
+1 20 247.97
-1 28 247.9
+2 32 247.9
-2 39 247.95
+3 15 248.03
-3 43 247.97
PRECEDENCE_SECTION
+0 -0
+1 -1
+2 -2
+3 -3
EOF
